NAME : MM4_depots
COMMENT : Instance 4 in MD algorithm. Coordinates of depots and vhcl speeds given.
TYPE : TSP
DIMENSION : 5
EDGE_WEIGHT_TYPE : EUC
NODE_COORD_SECTION
396 63.6348 72.0529 1
397 53.2735 39.9964 1
398 20.8717 39.4036 1
399 67.3728 41.1502 1
400 24.1908 14.9744 1
EOF
